c 
p cnf 110 180
18 -20 -11 0
16 -19 21 0
-21 13 22 0
-22 1 -18 0
-15 14 23 0
-23 -13 -5 0
15 -7 24 0
-24 -10 11 0
-16 2 18 0
10 -16 25 0
-25 6 26 0
-26 -12 18 0
-15 -20 27 0
-15 -20 -27 0
20 17 10 0
3 20 28 0
-28 -2 -14 0
-18 -17 29 0
-29 -5 -7 0
17 3 30 0
-30 11 18 0
10 9 17 0
-16 10 31 0
-31 -3 15 0
16 -3 19 0
7 -6 32 0
-32 1 -3 0
3 9 33 0
-33 -10 34 0
-34 -8 18 0
18 11 35 0
-35 -1 13 0
15 19 36 0
-36 -20 37 0
-37 -2 10 0
-6 -16 17 0
-12 38 39 0
-12 38 -39 0
-12 -38 39 0
-12 -38 -39 0
-10 2 40 0
-40 16 -6 0
6 -8 41 0
-41 5 19 0
3 42 43 0
3 42 -43 0
3 -42 43 0
3 -42 -43 0
2 44 45 0
2 44 -45 0
2 -44 45 0
2 -44 -45 0
2 4 -13 0
20 -5 -16 0
-9 46 47 0
-9 46 -47 0
-9 -46 47 0
-9 -46 -47 0
20 -11 -16 0
-9 10 48 0
-48 -3 -5 0
-17 15 49 0
-17 15 -49 0
15 -12 50 0
-50 16 51 0
-51 1 -18 0
9 16 52 0
-52 -19 53 0
-53 -10 -20 0
-8 11 54 0
-54 -2 4 0
-13 -1 55 0
-13 -1 -55 0
-17 12 56 0
-56 -13 57 0
-57 -1 -15 0
14 -20 58 0
14 -20 -58 0
-15 5 59 0
-59 -20 60 0
-60 8 17 0
-8 61 62 0
-8 61 -62 0
-8 -61 62 0
-8 -61 -62 0
-10 -19 -15 0
-15 10 -5 0
5 -12 63 0
5 -12 -63 0
20 -10 64 0
-64 -9 65 0
-65 -17 -6 0
2 -6 -20 0
1 66 67 0
1 66 -67 0
1 -66 67 0
1 -66 -67 0
1 13 -16 0
7 18 68 0
7 18 -68 0
-13 69 70 0
-13 69 -70 0
-13 -69 70 0
-13 -69 -70 0
-4 -12 71 0
-71 1 72 0
-72 8 -19 0
6 -5 10 0
3 73 74 0
3 73 -74 0
3 -73 74 0
3 -73 -74 0
6 -9 75 0
-75 2 15 0
16 1 76 0
-76 17 77 0
-77 -5 -3 0
19 -10 78 0
-78 -1 2 0
15 6 79 0
15 6 -79 0
-9 -18 80 0
-9 -18 -80 0
6 14 -8 0
12 -9 81 0
12 -9 -81 0
-17 -13 -15 0
-16 -20 11 0
-1 4 82 0
-1 4 -82 0
-20 16 83 0
-83 17 84 0
-84 -14 -19 0
17 -4 85 0
-85 -6 -16 0
-17 6 86 0
-86 -5 87 0
-87 8 18 0
-12 16 17 0
-10 15 88 0
-88 -4 89 0
-89 -6 -18 0
5 20 -1 0
-20 3 90 0
-90 -12 91 0
-91 -19 -8 0
-6 -19 92 0
-6 -19 -92 0
-1 12 93 0
-1 12 -93 0
-14 3 94 0
-94 9 18 0
9 95 96 0
9 95 -96 0
9 -95 96 0
9 -95 -96 0
-19 16 97 0
-97 11 98 0
-98 1 12 0
3 14 99 0
3 14 -99 0
13 15 100 0
-100 -1 101 0
-101 -20 8 0
2 -15 102 0
-102 -19 103 0
-103 -8 1 0
-18 -9 104 0
-104 -20 12 0
-15 -18 105 0
-105 20 16 0
-15 106 107 0
-15 106 -107 0
-15 -106 107 0
-15 -106 -107 0
16 -11 108 0
-108 10 109 0
-109 -1 9 0
2 -11 110 0
-110 -3 -1 0
